p cnf 967 2484
51 -700 -1 0
-51 700 0
-51 1 0
52 -51 -701 0
-52 51 0
-52 701 0
53 -5 -702 0
-53 5 0
-53 702 0
54 -53 -703 0
-54 53 0
-54 703 0
55 -704 -705 0
-55 704 0
-55 705 0
56 -706 -707 0
-56 706 0
-56 707 0
57 -56 -8 0
-57 56 0
-57 8 0
58 -708 -55 0
-58 708 0
-58 55 0
59 -709 -9 0
-59 709 0
-59 9 0
60 -59 -710 0
-60 59 0
-60 710 0
61 -711 -58 0
-61 711 0
-61 58 0
62 -12 -4 0
-62 12 0
-62 4 0
63 -62 -710 0
-63 62 0
-63 710 0
64 -712 -61 0
-64 712 0
-64 61 0
65 -713 -714 0
-65 713 0
-65 714 0
66 -65 -10 0
-66 65 0
-66 10 0
67 -715 -64 0
-67 715 0
-67 64 0
68 -716 -14 0
-68 716 0
-68 14 0
69 -68 -16 0
-69 68 0
-69 16 0
70 -717 -67 0
-70 717 0
-70 67 0
71 -718 -706 0
-71 718 0
-71 706 0
72 -71 -701 0
-72 71 0
-72 701 0
73 -719 -70 0
-73 719 0
-73 70 0
74 -13 -1 0
-74 13 0
-74 1 0
75 -74 -18 0
-75 74 0
-75 18 0
76 -720 -73 0
-76 720 0
-76 73 0
77 -19 -703 0
-77 19 0
-77 703 0
78 -77 -721 0
-78 77 0
-78 721 0
79 -722 -76 0
-79 722 0
-79 76 0
80 -723 -10 0
-80 723 0
-80 10 0
81 -80 -724 0
-81 80 0
-81 724 0
82 -725 -79 0
-82 725 0
-82 79 0
83 -726 -702 0
-83 726 0
-83 702 0
84 -83 -12 0
-84 83 0
-84 12 0
85 -727 -82 0
-85 727 0
-85 82 0
86 -728 -729 0
-86 728 0
-86 729 0
87 -86 -26 0
-87 86 0
-87 26 0
88 -730 -85 0
-88 730 0
-88 85 0
89 -27 -731 0
-89 27 0
-89 731 0
90 -89 -22 0
-90 89 0
-90 22 0
91 -732 -88 0
-91 732 0
-91 88 0
92 -28 -733 0
-92 28 0
-92 733 0
93 -92 -9 0
-93 92 0
-93 9 0
94 -734 -91 0
-94 734 0
-94 91 0
95 -721 -12 0
-95 721 0
-95 12 0
96 -95 -735 0
-96 95 0
-96 735 0
97 -736 -94 0
-97 736 0
-97 94 0
98 -737 -738 0
-98 737 0
-98 738 0
99 -98 -739 0
-99 98 0
-99 739 0
100 -740 -97 0
-100 740 0
-100 97 0
101 -741 -742 0
-101 741 0
-101 742 0
102 -101 -710 0
-102 101 0
-102 710 0
103 -743 -100 0
-103 743 0
-103 100 0
104 -744 -745 0
-104 744 0
-104 745 0
105 -104 -716 0
-105 104 0
-105 716 0
106 -746 -103 0
-106 746 0
-106 103 0
107 -35 -741 0
-107 35 0
-107 741 0
108 -107 -8 0
-108 107 0
-108 8 0
109 -747 -106 0
-109 747 0
-109 106 0
110 -26 -14 0
-110 26 0
-110 14 0
111 -110 -748 0
-111 110 0
-111 748 0
112 -749 -109 0
-112 749 0
-112 109 0
113 -24 -750 0
-113 24 0
-113 750 0
114 -113 -37 0
-114 113 0
-114 37 0
115 -751 -112 0
-115 751 0
-115 112 0
116 -7 -6 0
-116 7 0
-116 6 0
117 -116 -38 0
-117 116 0
-117 38 0
118 -752 -115 0
-118 752 0
-118 115 0
119 -33 -17 0
-119 33 0
-119 17 0
120 -119 -22 0
-120 119 0
-120 22 0
121 -753 -118 0
-121 753 0
-121 118 0
122 -754 -26 0
-122 754 0
-122 26 0
123 -122 -741 0
-123 122 0
-123 741 0
124 -755 -121 0
-124 755 0
-124 121 0
125 -756 -738 0
-125 756 0
-125 738 0
126 -125 -10 0
-126 125 0
-126 10 0
127 -757 -124 0
-127 757 0
-127 124 0
128 -726 -731 0
-128 726 0
-128 731 0
129 -128 -724 0
-129 128 0
-129 724 0
130 -758 -127 0
-130 758 0
-130 127 0
131 -726 -759 0
-131 726 0
-131 759 0
132 -131 -31 0
-132 131 0
-132 31 0
133 -760 -130 0
-133 760 0
-133 130 0
134 -761 -742 0
-134 761 0
-134 742 0
135 -134 -11 0
-135 134 0
-135 11 0
136 -762 -133 0
-136 762 0
-136 133 0
137 -42 -17 0
-137 42 0
-137 17 0
138 -137 -12 0
-138 137 0
-138 12 0
139 -763 -136 0
-139 763 0
-139 136 0
140 -728 -18 0
-140 728 0
-140 18 0
141 -140 -737 0
-141 140 0
-141 737 0
142 -764 -139 0
-142 764 0
-142 139 0
143 -19 -12 0
-143 19 0
-143 12 0
144 -143 -38 0
-144 143 0
-144 38 0
145 -765 -142 0
-145 765 0
-145 142 0
146 -18 -766 0
-146 18 0
-146 766 0
147 -146 -43 0
-147 146 0
-147 43 0
148 -767 -145 0
-148 767 0
-148 145 0
149 -768 -741 0
-149 768 0
-149 741 0
150 -149 -739 0
-150 149 0
-150 739 0
151 -769 -148 0
-151 769 0
-151 148 0
152 -18 -13 0
-152 18 0
-152 13 0
153 -152 -761 0
-153 152 0
-153 761 0
154 -770 -151 0
-154 770 0
-154 151 0
155 -729 -718 0
-155 729 0
-155 718 0
156 -155 -36 0
-156 155 0
-156 36 0
157 -771 -154 0
-157 771 0
-157 154 0
158 -30 -731 0
-158 30 0
-158 731 0
159 -158 -38 0
-159 158 0
-159 38 0
160 -772 -157 0
-160 772 0
-160 157 0
161 -773 -18 0
-161 773 0
-161 18 0
162 -161 -748 0
-162 161 0
-162 748 0
163 -774 -160 0
-163 774 0
-163 160 0
164 -737 -775 0
-164 737 0
-164 775 0
165 -164 -776 0
-165 164 0
-165 776 0
166 -777 -163 0
-166 777 0
-166 163 0
167 -778 -706 0
-167 778 0
-167 706 0
168 -167 -768 0
-168 167 0
-168 768 0
169 -779 -166 0
-169 779 0
-169 166 0
170 -745 -1 0
-170 745 0
-170 1 0
171 -170 -744 0
-171 170 0
-171 744 0
172 -780 -169 0
-172 780 0
-172 169 0
173 -778 -19 0
-173 778 0
-173 19 0
174 -173 -12 0
-174 173 0
-174 12 0
175 -781 -172 0
-175 781 0
-175 172 0
176 -782 -723 0
-176 782 0
-176 723 0
177 -176 -8 0
-177 176 0
-177 8 0
178 -783 -175 0
-178 783 0
-178 175 0
179 -41 -754 0
-179 41 0
-179 754 0
180 -179 -37 0
-180 179 0
-180 37 0
181 -784 -178 0
-181 784 0
-181 178 0
182 -761 -14 0
-182 761 0
-182 14 0
183 -182 -714 0
-183 182 0
-183 714 0
184 -785 -181 0
-184 785 0
-184 181 0
185 -47 -44 0
-185 47 0
-185 44 0
186 -185 -9 0
-186 185 0
-186 9 0
187 -786 -184 0
-187 786 0
-187 184 0
188 -18 -718 0
-188 18 0
-188 718 0
189 -188 -726 0
-189 188 0
-189 726 0
190 -787 -187 0
-190 787 0
-190 187 0
191 -744 -25 0
-191 744 0
-191 25 0
192 -191 -48 0
-192 191 0
-192 48 0
193 -788 -190 0
-193 788 0
-193 190 0
194 -27 -5 0
-194 27 0
-194 5 0
195 -194 -3 0
-195 194 0
-195 3 0
196 -789 -193 0
-196 789 0
-196 193 0
197 -42 -25 0
-197 42 0
-197 25 0
198 -197 -22 0
-198 197 0
-198 22 0
199 -790 -196 0
-199 790 0
-199 196 0
200 -791 -709 0
-200 791 0
-200 709 0
201 -200 -22 0
-201 200 0
-201 22 0
202 -792 -199 0
-202 792 0
-202 199 0
203 -27 -13 0
-203 27 0
-203 13 0
204 -203 -33 0
-204 203 0
-204 33 0
205 -793 -202 0
-205 793 0
-205 202 0
206 -728 -716 0
-206 728 0
-206 716 0
207 -206 -16 0
-207 206 0
-207 16 0
208 -794 -205 0
-208 794 0
-208 205 0
209 -28 -703 0
-209 28 0
-209 703 0
210 -209 -756 0
-210 209 0
-210 756 0
211 -795 -208 0
-211 795 0
-211 208 0
212 -46 -21 0
-212 46 0
-212 21 0
213 -212 -29 0
-213 212 0
-213 29 0
214 -796 -211 0
-214 796 0
-214 211 0
215 -40 -759 0
-215 40 0
-215 759 0
216 -215 -748 0
-216 215 0
-216 748 0
217 -797 -214 0
-217 797 0
-217 214 0
218 -761 -24 0
-218 761 0
-218 24 0
219 -218 -10 0
-219 218 0
-219 10 0
220 -798 -217 0
-220 798 0
-220 217 0
221 -791 -700 0
-221 791 0
-221 700 0
222 -221 -29 0
-222 221 0
-222 29 0
223 -799 -220 0
-223 799 0
-223 220 0
224 -29 -15 0
-224 29 0
-224 15 0
225 -224 -710 0
-225 224 0
-225 710 0
226 -800 -223 0
-226 800 0
-226 223 0
227 -34 -1 0
-227 34 0
-227 1 0
228 -227 -23 0
-228 227 0
-228 23 0
229 -801 -226 0
-229 801 0
-229 226 0
230 -13 -6 0
-230 13 0
-230 6 0
231 -230 -726 0
-231 230 0
-231 726 0
232 -802 -229 0
-232 802 0
-232 229 0
233 -738 -17 0
-233 738 0
-233 17 0
234 -233 -754 0
-234 233 0
-234 754 0
235 -803 -232 0
-235 803 0
-235 232 0
236 -714 -2 0
-236 714 0
-236 2 0
237 -236 -776 0
-237 236 0
-237 776 0
238 -804 -235 0
-238 804 0
-238 235 0
239 -805 -729 0
-239 805 0
-239 729 0
240 -239 -791 0
-240 239 0
-240 791 0
241 -806 -238 0
-241 806 0
-241 238 0
242 -807 -713 0
-242 807 0
-242 713 0
243 -242 -776 0
-243 242 0
-243 776 0
244 -808 -241 0
-244 808 0
-244 241 0
245 -748 -13 0
-245 748 0
-245 13 0
246 -245 -27 0
-246 245 0
-246 27 0
247 -809 -244 0
-247 809 0
-247 244 0
248 -49 -28 0
-248 49 0
-248 28 0
249 -248 -43 0
-249 248 0
-249 43 0
250 -810 -247 0
-250 810 0
-250 247 0
251 -811 -11 0
-251 811 0
-251 11 0
252 -251 -48 0
-252 251 0
-252 48 0
253 -812 -250 0
-253 812 0
-253 250 0
254 -14 -702 0
-254 14 0
-254 702 0
255 -254 -737 0
-255 254 0
-255 737 0
256 -813 -253 0
-256 813 0
-256 253 0
257 -18 -6 0
-257 18 0
-257 6 0
258 -257 -721 0
-258 257 0
-258 721 0
259 -814 -256 0
-259 814 0
-259 256 0
260 -45 -768 0
-260 45 0
-260 768 0
261 -260 -11 0
-261 260 0
-261 11 0
262 -815 -259 0
-262 815 0
-262 259 0
263 -816 -721 0
-263 816 0
-263 721 0
264 -263 -709 0
-264 263 0
-264 709 0
265 -817 -262 0
-265 817 0
-265 262 0
266 -782 -721 0
-266 782 0
-266 721 0
267 -266 -8 0
-267 266 0
-267 8 0
268 -818 -265 0
-268 818 0
-268 265 0
269 -718 -750 0
-269 718 0
-269 750 0
270 -269 -776 0
-270 269 0
-270 776 0
271 -819 -268 0
-271 819 0
-271 268 0
272 -773 -756 0
-272 773 0
-272 756 0
273 -272 -3 0
-273 272 0
-273 3 0
274 -820 -271 0
-274 820 0
-274 271 0
275 -50 -16 0
-275 50 0
-275 16 0
276 -275 -8 0
-276 275 0
-276 8 0
277 -821 -274 0
-277 821 0
-277 274 0
278 -27 -706 0
-278 27 0
-278 706 0
279 -278 -9 0
-279 278 0
-279 9 0
280 -822 -277 0
-280 822 0
-280 277 0
281 -17 -15 0
-281 17 0
-281 15 0
282 -281 -37 0
-282 281 0
-282 37 0
283 -823 -280 0
-283 823 0
-283 280 0
284 -15 -14 0
-284 15 0
-284 14 0
285 -284 -735 0
-285 284 0
-285 735 0
286 -824 -283 0
-286 824 0
-286 283 0
287 -754 -729 0
-287 754 0
-287 729 0
288 -287 -733 0
-288 287 0
-288 733 0
289 -825 -286 0
-289 825 0
-289 286 0
290 -811 -21 0
-290 811 0
-290 21 0
291 -290 -776 0
-291 290 0
-291 776 0
292 -826 -289 0
-292 826 0
-292 289 0
293 -46 -750 0
-293 46 0
-293 750 0
294 -293 -31 0
-294 293 0
-294 31 0
295 -827 -292 0
-295 827 0
-295 292 0
296 -728 -22 0
-296 728 0
-296 22 0
297 -296 -48 0
-297 296 0
-297 48 0
298 -828 -295 0
-298 828 0
-298 295 0
299 -805 -759 0
-299 805 0
-299 759 0
300 -299 -40 0
-300 299 0
-300 40 0
301 -829 -298 0
-301 829 0
-301 298 0
302 -723 -775 0
-302 723 0
-302 775 0
303 -302 -39 0
-303 302 0
-303 39 0
304 -830 -301 0
-304 830 0
-304 301 0
305 -41 -775 0
-305 41 0
-305 775 0
306 -305 -40 0
-306 305 0
-306 40 0
307 -831 -304 0
-307 831 0
-307 304 0
308 -748 -713 0
-308 748 0
-308 713 0
309 -308 -45 0
-309 308 0
-309 45 0
310 -832 -307 0
-310 832 0
-310 307 0
311 -34 -20 0
-311 34 0
-311 20 0
312 -311 -10 0
-312 311 0
-312 10 0
313 -833 -310 0
-313 833 0
-313 310 0
314 -26 -706 0
-314 26 0
-314 706 0
315 -314 -759 0
-315 314 0
-315 759 0
316 -834 -313 0
-316 834 0
-316 313 0
317 -741 -9 0
-317 741 0
-317 9 0
318 -317 -737 0
-318 317 0
-318 737 0
319 -835 -316 0
-319 835 0
-319 316 0
320 -703 -2 0
-320 703 0
-320 2 0
321 -320 -8 0
-321 320 0
-321 8 0
322 -836 -319 0
-322 836 0
-322 319 0
323 -745 -726 0
-323 745 0
-323 726 0
324 -323 -735 0
-324 323 0
-324 735 0
325 -837 -322 0
-325 837 0
-325 322 0
326 -773 -768 0
-326 773 0
-326 768 0
327 -326 -48 0
-327 326 0
-327 48 0
328 -838 -325 0
-328 838 0
-328 325 0
329 -706 -6 0
-329 706 0
-329 6 0
330 -329 -721 0
-330 329 0
-330 721 0
331 -839 -328 0
-331 839 0
-331 328 0
332 -742 -26 0
-332 742 0
-332 26 0
333 -332 -761 0
-333 332 0
-333 761 0
334 -840 -331 0
-334 840 0
-334 331 0
335 -726 -707 0
-335 726 0
-335 707 0
336 -335 -36 0
-336 335 0
-336 36 0
337 -841 -334 0
-337 841 0
-337 334 0
338 -43 -6 0
-338 43 0
-338 6 0
339 -338 -739 0
-339 338 0
-339 739 0
340 -842 -337 0
-340 842 0
-340 337 0
341 -42 -20 0
-341 42 0
-341 20 0
342 -341 -716 0
-342 341 0
-342 716 0
343 -843 -340 0
-343 843 0
-343 340 0
344 -714 -5 0
-344 714 0
-344 5 0
345 -344 -22 0
-345 344 0
-345 22 0
346 -844 -343 0
-346 844 0
-346 343 0
347 -17 -14 0
-347 17 0
-347 14 0
348 -347 -750 0
-348 347 0
-348 750 0
349 -845 -346 0
-349 845 0
-349 346 0
350 -748 -20 0
-350 748 0
-350 20 0
351 -350 -739 0
-351 350 0
-351 739 0
352 -846 -349 0
-352 846 0
-352 349 0
353 -778 -759 0
-353 778 0
-353 759 0
354 -353 -847 0
-354 353 0
-354 847 0
355 -848 -352 0
-355 848 0
-355 352 0
356 -46 -716 0
-356 46 0
-356 716 0
357 -356 -31 0
-357 356 0
-357 31 0
358 -849 -355 0
-358 849 0
-358 355 0
359 -278 -11 0
-359 278 0
-359 11 0
360 -850 -358 0
-360 850 0
-360 358 0
361 -761 -726 0
-361 761 0
-361 726 0
362 -361 -43 0
-362 361 0
-362 43 0
363 -851 -360 0
-363 851 0
-363 360 0
364 -782 -42 0
-364 782 0
-364 42 0
365 -364 -45 0
-365 364 0
-365 45 0
366 -852 -363 0
-366 852 0
-366 363 0
367 -807 -707 0
-367 807 0
-367 707 0
368 -367 -853 0
-368 367 0
-368 853 0
369 -854 -366 0
-369 854 0
-369 366 0
370 -756 -816 0
-370 756 0
-370 816 0
371 -370 -11 0
-371 370 0
-371 11 0
372 -855 -369 0
-372 855 0
-372 369 0
373 -24 -707 0
-373 24 0
-373 707 0
374 -373 -744 0
-374 373 0
-374 744 0
375 -856 -372 0
-375 856 0
-375 372 0
376 -754 -731 0
-376 754 0
-376 731 0
377 -376 -768 0
-377 376 0
-377 768 0
378 -857 -375 0
-378 857 0
-378 375 0
379 -7 -775 0
-379 7 0
-379 775 0
380 -379 -18 0
-380 379 0
-380 18 0
381 -858 -378 0
-381 858 0
-381 378 0
382 -37 -15 0
-382 37 0
-382 15 0
383 -382 -737 0
-383 382 0
-383 737 0
384 -859 -381 0
-384 859 0
-384 381 0
385 -40 -731 0
-385 40 0
-385 731 0
386 -385 -37 0
-386 385 0
-386 37 0
387 -860 -384 0
-387 860 0
-387 384 0
388 -27 -12 0
-388 27 0
-388 12 0
389 -388 -11 0
-389 388 0
-389 11 0
390 -861 -387 0
-390 861 0
-390 387 0
391 -40 -26 0
-391 40 0
-391 26 0
392 -391 -733 0
-392 391 0
-392 733 0
393 -862 -390 0
-393 862 0
-393 390 0
394 -9 -5 0
-394 9 0
-394 5 0
395 -394 -737 0
-395 394 0
-395 737 0
396 -863 -393 0
-396 863 0
-396 393 0
397 -864 -807 0
-397 864 0
-397 807 0
398 -397 -31 0
-398 397 0
-398 31 0
399 -865 -396 0
-399 865 0
-399 396 0
400 -37 -19 0
-400 37 0
-400 19 0
401 -400 -8 0
-401 400 0
-401 8 0
402 -866 -399 0
-402 866 0
-402 399 0
403 -5 -2 0
-403 5 0
-403 2 0
404 -403 -754 0
-404 403 0
-404 754 0
405 -867 -402 0
-405 867 0
-405 402 0
406 -40 -768 0
-406 40 0
-406 768 0
407 -406 -710 0
-407 406 0
-407 710 0
408 -868 -405 0
-408 868 0
-408 405 0
409 -811 -28 0
-409 811 0
-409 28 0
410 -409 -48 0
-410 409 0
-410 48 0
411 -869 -408 0
-411 869 0
-411 408 0
412 -870 -718 0
-412 870 0
-412 718 0
413 -412 -49 0
-413 412 0
-413 49 0
414 -871 -411 0
-414 871 0
-414 411 0
415 -847 -28 0
-415 847 0
-415 28 0
416 -415 -10 0
-416 415 0
-416 10 0
417 -872 -414 0
-417 872 0
-417 414 0
418 -718 -13 0
-418 718 0
-418 13 0
419 -418 -12 0
-419 418 0
-419 12 0
420 -873 -417 0
-420 873 0
-420 417 0
421 -870 -30 0
-421 870 0
-421 30 0
422 -421 -768 0
-422 421 0
-422 768 0
423 -874 -420 0
-423 874 0
-423 420 0
424 -30 -1 0
-424 30 0
-424 1 0
425 -424 -12 0
-425 424 0
-425 12 0
426 -875 -423 0
-426 875 0
-426 423 0
427 -782 -807 0
-427 782 0
-427 807 0
428 -427 -9 0
-428 427 0
-428 9 0
429 -876 -426 0
-429 876 0
-429 426 0
430 -791 -21 0
-430 791 0
-430 21 0
431 -430 -8 0
-431 430 0
-431 8 0
432 -877 -429 0
-432 877 0
-432 429 0
433 -768 -759 0
-433 768 0
-433 759 0
434 -433 -45 0
-434 433 0
-434 45 0
435 -878 -432 0
-435 878 0
-435 432 0
436 -35 -15 0
-436 35 0
-436 15 0
437 -436 -45 0
-437 436 0
-437 45 0
438 -879 -435 0
-438 879 0
-438 435 0
439 -864 -10 0
-439 864 0
-439 10 0
440 -439 -3 0
-440 439 0
-440 3 0
441 -880 -438 0
-441 880 0
-441 438 0
442 -703 -700 0
-442 703 0
-442 700 0
443 -442 -39 0
-443 442 0
-443 39 0
444 -881 -441 0
-444 881 0
-444 441 0
445 -805 -13 0
-445 805 0
-445 13 0
446 -445 -23 0
-446 445 0
-446 23 0
447 -882 -444 0
-447 882 0
-447 444 0
448 -870 -18 0
-448 870 0
-448 18 0
449 -448 -731 0
-449 448 0
-449 731 0
450 -883 -447 0
-450 883 0
-450 447 0
451 -782 -847 0
-451 782 0
-451 847 0
452 -451 -15 0
-452 451 0
-452 15 0
453 -884 -450 0
-453 884 0
-453 450 0
454 -726 -714 0
-454 726 0
-454 714 0
455 -454 -22 0
-455 454 0
-455 22 0
456 -885 -453 0
-456 885 0
-456 453 0
457 -47 -40 0
-457 47 0
-457 40 0
458 -457 -27 0
-458 457 0
-458 27 0
459 -886 -456 0
-459 886 0
-459 456 0
460 -424 -32 0
-460 424 0
-460 32 0
461 -887 -459 0
-461 887 0
-461 459 0
462 -17 -702 0
-462 17 0
-462 702 0
463 -462 -703 0
-463 462 0
-463 703 0
464 -888 -461 0
-464 888 0
-464 461 0
465 -34 -742 0
-465 34 0
-465 742 0
466 -465 -9 0
-466 465 0
-466 9 0
467 -889 -464 0
-467 889 0
-467 464 0
468 -761 -728 0
-468 761 0
-468 728 0
469 -468 -8 0
-469 468 0
-469 8 0
470 -890 -467 0
-470 890 0
-470 467 0
471 -28 -706 0
-471 28 0
-471 706 0
472 -471 -805 0
-472 471 0
-472 805 0
473 -891 -470 0
-473 891 0
-473 470 0
474 -811 -723 0
-474 811 0
-474 723 0
475 -474 -733 0
-475 474 0
-475 733 0
476 -892 -473 0
-476 892 0
-476 473 0
477 -24 -723 0
-477 24 0
-477 723 0
478 -477 -726 0
-478 477 0
-478 726 0
479 -893 -476 0
-479 893 0
-479 476 0
480 -45 -39 0
-480 45 0
-480 39 0
481 -480 -853 0
-481 480 0
-481 853 0
482 -894 -479 0
-482 894 0
-482 479 0
483 -741 -723 0
-483 741 0
-483 723 0
484 -483 -750 0
-484 483 0
-484 750 0
485 -895 -482 0
-485 895 0
-485 482 0
486 -43 -12 0
-486 43 0
-486 12 0
487 -486 -35 0
-487 486 0
-487 35 0
488 -896 -485 0
-488 896 0
-488 485 0
489 -723 -18 0
-489 723 0
-489 18 0
490 -489 -33 0
-490 489 0
-490 33 0
491 -897 -488 0
-491 897 0
-491 488 0
492 -744 -1 0
-492 744 0
-492 1 0
493 -492 -14 0
-493 492 0
-493 14 0
494 -898 -491 0
-494 898 0
-494 491 0
495 -776 -43 0
-495 776 0
-495 43 0
496 -495 -22 0
-496 495 0
-496 22 0
497 -899 -494 0
-497 899 0
-497 494 0
498 -47 -14 0
-498 47 0
-498 14 0
499 -498 -741 0
-499 498 0
-499 741 0
500 -900 -497 0
-500 900 0
-500 497 0
501 -34 -24 0
-501 34 0
-501 24 0
502 -501 -3 0
-502 501 0
-502 3 0
503 -901 -500 0
-503 901 0
-503 500 0
504 -744 -807 0
-504 744 0
-504 807 0
505 -504 -754 0
-505 504 0
-505 754 0
506 -902 -503 0
-506 902 0
-506 503 0
507 -805 -26 0
-507 805 0
-507 26 0
508 -507 -754 0
-508 507 0
-508 754 0
509 -903 -506 0
-509 903 0
-509 506 0
510 -728 -759 0
-510 728 0
-510 759 0
511 -510 -48 0
-511 510 0
-511 48 0
512 -904 -509 0
-512 904 0
-512 509 0
513 -847 -32 0
-513 847 0
-513 32 0
514 -513 -724 0
-514 513 0
-514 724 0
515 -905 -512 0
-515 905 0
-515 512 0
516 -773 -5 0
-516 773 0
-516 5 0
517 -516 -766 0
-517 516 0
-517 766 0
518 -906 -515 0
-518 906 0
-518 515 0
519 -50 -713 0
-519 50 0
-519 713 0
520 -519 -741 0
-520 519 0
-520 741 0
521 -907 -518 0
-521 907 0
-521 518 0
522 -40 -30 0
-522 40 0
-522 30 0
523 -522 -737 0
-523 522 0
-523 737 0
524 -908 -521 0
-524 908 0
-524 521 0
525 -36 -713 0
-525 36 0
-525 713 0
526 -525 -16 0
-526 525 0
-526 16 0
527 -909 -524 0
-527 909 0
-527 524 0
528 -738 -735 0
-528 738 0
-528 735 0
529 -528 -45 0
-529 528 0
-529 45 0
530 -910 -527 0
-530 910 0
-530 527 0
531 -44 -40 0
-531 44 0
-531 40 0
532 -531 -11 0
-532 531 0
-532 11 0
533 -911 -530 0
-533 911 0
-533 530 0
534 -45 -742 0
-534 45 0
-534 742 0
535 -534 -739 0
-535 534 0
-535 739 0
536 -912 -533 0
-536 912 0
-536 533 0
537 -723 -4 0
-537 723 0
-537 4 0
538 -537 -716 0
-538 537 0
-538 716 0
539 -913 -536 0
-539 913 0
-539 536 0
540 -46 -735 0
-540 46 0
-540 735 0
541 -540 -11 0
-541 540 0
-541 11 0
542 -914 -539 0
-542 914 0
-542 539 0
543 -35 -26 0
-543 35 0
-543 26 0
544 -543 -750 0
-544 543 0
-544 750 0
545 -915 -542 0
-545 915 0
-545 542 0
546 -50 -703 0
-546 50 0
-546 703 0
547 -546 -761 0
-547 546 0
-547 761 0
548 -916 -545 0
-548 916 0
-548 545 0
549 -13 -707 0
-549 13 0
-549 707 0
550 -549 -23 0
-550 549 0
-550 23 0
551 -917 -548 0
-551 917 0
-551 548 0
552 -50 -18 0
-552 50 0
-552 18 0
553 -552 -11 0
-553 552 0
-553 11 0
554 -918 -551 0
-554 918 0
-554 551 0
555 -21 -14 0
-555 21 0
-555 14 0
556 -555 -731 0
-556 555 0
-556 731 0
557 -919 -554 0
-557 919 0
-557 554 0
558 -713 -1 0
-558 713 0
-558 1 0
559 -558 -733 0
-559 558 0
-559 733 0
560 -920 -557 0
-560 920 0
-560 557 0
561 -47 -773 0
-561 47 0
-561 773 0
562 -561 -39 0
-562 561 0
-562 39 0
563 -921 -560 0
-563 921 0
-563 560 0
564 -46 -36 0
-564 46 0
-564 36 0
565 -564 -847 0
-565 564 0
-565 847 0
566 -922 -563 0
-566 922 0
-566 563 0
567 -731 -7 0
-567 731 0
-567 7 0
568 -567 -756 0
-568 567 0
-568 756 0
569 -923 -566 0
-569 923 0
-569 566 0
570 -778 -18 0
-570 778 0
-570 18 0
571 -570 -754 0
-571 570 0
-571 754 0
572 -924 -569 0
-572 924 0
-572 569 0
573 -805 -723 0
-573 805 0
-573 723 0
574 -573 -33 0
-574 573 0
-574 33 0
575 -925 -572 0
-575 925 0
-575 572 0
576 -805 -7 0
-576 805 0
-576 7 0
577 -576 -11 0
-577 576 0
-577 11 0
578 -926 -575 0
-578 926 0
-578 575 0
579 -738 -19 0
-579 738 0
-579 19 0
580 -579 -721 0
-580 579 0
-580 721 0
581 -927 -578 0
-581 927 0
-581 578 0
582 -782 -1 0
-582 782 0
-582 1 0
583 -582 -14 0
-583 582 0
-583 14 0
584 -928 -581 0
-584 928 0
-584 581 0
585 -50 -773 0
-585 50 0
-585 773 0
586 -585 -847 0
-586 585 0
-586 847 0
587 -929 -584 0
-587 929 0
-587 584 0
588 -750 -14 0
-588 750 0
-588 14 0
589 -588 -709 0
-589 588 0
-589 709 0
590 -930 -587 0
-590 930 0
-590 587 0
591 -40 -742 0
-591 40 0
-591 742 0
592 -591 -750 0
-592 591 0
-592 750 0
593 -931 -590 0
-593 931 0
-593 590 0
594 -29 -3 0
-594 29 0
-594 3 0
595 -594 -48 0
-595 594 0
-595 48 0
596 -932 -593 0
-596 932 0
-596 593 0
597 -713 -706 0
-597 713 0
-597 706 0
598 -597 -703 0
-598 597 0
-598 703 0
599 -933 -596 0
-599 933 0
-599 596 0
600 -864 -32 0
-600 864 0
-600 32 0
601 -600 -41 0
-601 600 0
-601 41 0
602 -934 -599 0
-602 934 0
-602 599 0
603 -43 -18 0
-603 43 0
-603 18 0
604 -603 -9 0
-604 603 0
-604 9 0
605 -935 -602 0
-605 935 0
-605 602 0
606 -49 -42 0
-606 49 0
-606 42 0
607 -606 -11 0
-607 606 0
-607 11 0
608 -936 -605 0
-608 936 0
-608 605 0
609 -24 -9 0
-609 24 0
-609 9 0
610 -609 -8 0
-610 609 0
-610 8 0
611 -937 -608 0
-611 937 0
-611 608 0
612 -745 -700 0
-612 745 0
-612 700 0
613 -612 -9 0
-613 612 0
-613 9 0
614 -938 -611 0
-614 938 0
-614 611 0
615 -782 -748 0
-615 782 0
-615 748 0
616 -615 -735 0
-616 615 0
-616 735 0
617 -939 -614 0
-617 939 0
-617 614 0
618 -37 -34 0
-618 37 0
-618 34 0
619 -618 -45 0
-619 618 0
-619 45 0
620 -940 -617 0
-620 940 0
-620 617 0
621 -45 -721 0
-621 45 0
-621 721 0
622 -621 -22 0
-622 621 0
-622 22 0
623 -941 -620 0
-623 941 0
-623 620 0
624 -778 -731 0
-624 778 0
-624 731 0
625 -624 -31 0
-625 624 0
-625 31 0
626 -942 -623 0
-626 942 0
-626 623 0
627 -782 -816 0
-627 782 0
-627 816 0
628 -627 -3 0
-628 627 0
-628 3 0
629 -943 -626 0
-629 943 0
-629 626 0
630 -735 -718 0
-630 735 0
-630 718 0
631 -630 -701 0
-631 630 0
-631 701 0
632 -944 -629 0
-632 944 0
-632 629 0
633 -30 -726 0
-633 30 0
-633 726 0
634 -633 -9 0
-634 633 0
-634 9 0
635 -945 -632 0
-635 945 0
-635 632 0
636 -791 -726 0
-636 791 0
-636 726 0
637 -636 -724 0
-637 636 0
-637 724 0
638 -946 -635 0
-638 946 0
-638 635 0
639 -816 -728 0
-639 816 0
-639 728 0
640 -639 -9 0
-640 639 0
-640 9 0
641 -947 -638 0
-641 947 0
-641 638 0
642 -8 -6 0
-642 8 0
-642 6 0
643 -642 -11 0
-643 642 0
-643 11 0
644 -948 -641 0
-644 948 0
-644 641 0
645 -816 -768 0
-645 816 0
-645 768 0
646 -645 -31 0
-646 645 0
-646 31 0
647 -949 -644 0
-647 949 0
-647 644 0
648 -870 -17 0
-648 870 0
-648 17 0
649 -648 -35 0
-649 648 0
-649 35 0
650 -950 -647 0
-650 950 0
-650 647 0
651 -32 -4 0
-651 32 0
-651 4 0
652 -651 -739 0
-652 651 0
-652 739 0
653 -951 -650 0
-653 951 0
-653 650 0
654 -729 -707 0
-654 729 0
-654 707 0
655 -654 -10 0
-655 654 0
-655 10 0
656 -952 -653 0
-656 952 0
-656 653 0
657 -761 -32 0
-657 761 0
-657 32 0
658 -657 -733 0
-658 657 0
-658 733 0
659 -953 -656 0
-659 953 0
-659 656 0
660 -745 -18 0
-660 745 0
-660 18 0
661 -660 -29 0
-661 660 0
-661 29 0
662 -954 -659 0
-662 954 0
-662 659 0
663 -816 -733 0
-663 816 0
-663 733 0
664 -663 -11 0
-664 663 0
-664 11 0
665 -955 -662 0
-665 955 0
-665 662 0
666 -847 -24 0
-666 847 0
-666 24 0
667 -666 -816 0
-667 666 0
-667 816 0
668 -956 -665 0
-668 956 0
-668 665 0
669 -39 -723 0
-669 39 0
-669 723 0
670 -669 -791 0
-670 669 0
-670 791 0
671 -957 -668 0
-671 957 0
-671 668 0
672 -776 -744 0
-672 776 0
-672 744 0
673 -672 -11 0
-673 672 0
-673 11 0
674 -958 -671 0
-674 958 0
-674 671 0
675 -735 -16 0
-675 735 0
-675 16 0
676 -675 -22 0
-676 675 0
-676 22 0
677 -959 -674 0
-677 959 0
-677 674 0
678 -155 -728 0
-678 155 0
-678 728 0
679 -960 -677 0
-679 960 0
-679 677 0
680 -42 -756 0
-680 42 0
-680 756 0
681 -680 -11 0
-681 680 0
-681 11 0
682 -961 -679 0
-682 961 0
-682 679 0
683 -281 -709 0
-683 281 0
-683 709 0
684 -962 -682 0
-684 962 0
-684 682 0
685 -723 -718 0
-685 723 0
-685 718 0
686 -685 -853 0
-686 685 0
-686 853 0
687 -963 -684 0
-687 963 0
-687 684 0
688 -30 -706 0
-688 30 0
-688 706 0
689 -688 -731 0
-689 688 0
-689 731 0
690 -964 -687 0
-690 964 0
-690 687 0
691 -34 -714 0
-691 34 0
-691 714 0
692 -691 -776 0
-692 691 0
-692 776 0
693 -965 -690 0
-693 965 0
-693 690 0
694 -46 -24 0
-694 46 0
-694 24 0
695 -694 -731 0
-695 694 0
-695 731 0
696 -966 -693 0
-696 966 0
-696 693 0
697 -870 -728 0
-697 870 0
-697 728 0
698 -697 -761 0
-698 697 0
-698 761 0
699 -967 -696 0
-699 967 0
-699 696 0
-700 -2 0
700 2 0
-701 -3 0
701 3 0
-702 -4 0
702 4 0
-703 -6 0
703 6 0
-704 -54 0
704 54 0
-705 -52 0
705 52 0
-706 -7 0
706 7 0
-707 -1 0
707 1 0
-708 -57 0
708 57 0
-709 -10 0
709 10 0
-710 -11 0
710 11 0
-711 -60 0
711 60 0
-712 -63 0
712 63 0
-713 -13 0
713 13 0
-714 -9 0
714 9 0
-715 -66 0
715 66 0
-716 -15 0
716 15 0
-717 -69 0
717 69 0
-718 -17 0
718 17 0
-719 -72 0
719 72 0
-720 -75 0
720 75 0
-721 -20 0
721 20 0
-722 -78 0
722 78 0
-723 -21 0
723 21 0
-724 -22 0
724 22 0
-725 -81 0
725 81 0
-726 -23 0
726 23 0
-727 -84 0
727 84 0
-728 -25 0
728 25 0
-729 -24 0
729 24 0
-730 -87 0
730 87 0
-731 -19 0
731 19 0
-732 -90 0
732 90 0
-733 -27 0
733 27 0
-734 -93 0
734 93 0
-735 -29 0
735 29 0
-736 -96 0
736 96 0
-737 -31 0
737 31 0
-738 -30 0
738 30 0
-739 -8 0
739 8 0
-740 -99 0
740 99 0
-741 -33 0
741 33 0
-742 -32 0
742 32 0
-743 -102 0
743 102 0
-744 -34 0
744 34 0
-745 -28 0
745 28 0
-746 -105 0
746 105 0
-747 -108 0
747 108 0
-748 -36 0
748 36 0
-749 -111 0
749 111 0
-750 -16 0
750 16 0
-751 -114 0
751 114 0
-752 -117 0
752 117 0
-753 -120 0
753 120 0
-754 -39 0
754 39 0
-755 -123 0
755 123 0
-756 -40 0
756 40 0
-757 -126 0
757 126 0
-758 -129 0
758 129 0
-759 -12 0
759 12 0
-760 -132 0
760 132 0
-761 -41 0
761 41 0
-762 -135 0
762 135 0
-763 -138 0
763 138 0
-764 -141 0
764 141 0
-765 -144 0
765 144 0
-766 -14 0
766 14 0
-767 -147 0
767 147 0
-768 -37 0
768 37 0
-769 -150 0
769 150 0
-770 -153 0
770 153 0
-771 -156 0
771 156 0
-772 -159 0
772 159 0
-773 -44 0
773 44 0
-774 -162 0
774 162 0
-775 -5 0
775 5 0
-776 -45 0
776 45 0
-777 -165 0
777 165 0
-778 -26 0
778 26 0
-779 -168 0
779 168 0
-780 -171 0
780 171 0
-781 -174 0
781 174 0
-782 -46 0
782 46 0
-783 -177 0
783 177 0
-784 -180 0
784 180 0
-785 -183 0
785 183 0
-786 -186 0
786 186 0
-787 -189 0
787 189 0
-788 -192 0
788 192 0
-789 -195 0
789 195 0
-790 -198 0
790 198 0
-791 -43 0
791 43 0
-792 -201 0
792 201 0
-793 -204 0
793 204 0
-794 -207 0
794 207 0
-795 -210 0
795 210 0
-796 -213 0
796 213 0
-797 -216 0
797 216 0
-798 -219 0
798 219 0
-799 -222 0
799 222 0
-800 -225 0
800 225 0
-801 -228 0
801 228 0
-802 -231 0
802 231 0
-803 -234 0
803 234 0
-804 -237 0
804 237 0
-805 -47 0
805 47 0
-806 -240 0
806 240 0
-807 -18 0
807 18 0
-808 -243 0
808 243 0
-809 -246 0
809 246 0
-810 -249 0
810 249 0
-811 -50 0
811 50 0
-812 -252 0
812 252 0
-813 -255 0
813 255 0
-814 -258 0
814 258 0
-815 -261 0
815 261 0
-816 -38 0
816 38 0
-817 -264 0
817 264 0
-818 -267 0
818 267 0
-819 -270 0
819 270 0
-820 -273 0
820 273 0
-821 -276 0
821 276 0
-822 -279 0
822 279 0
-823 -282 0
823 282 0
-824 -285 0
824 285 0
-825 -288 0
825 288 0
-826 -291 0
826 291 0
-827 -294 0
827 294 0
-828 -297 0
828 297 0
-829 -300 0
829 300 0
-830 -303 0
830 303 0
-831 -306 0
831 306 0
-832 -309 0
832 309 0
-833 -312 0
833 312 0
-834 -315 0
834 315 0
-835 -318 0
835 318 0
-836 -321 0
836 321 0
-837 -324 0
837 324 0
-838 -327 0
838 327 0
-839 -330 0
839 330 0
-840 -333 0
840 333 0
-841 -336 0
841 336 0
-842 -339 0
842 339 0
-843 -342 0
843 342 0
-844 -345 0
844 345 0
-845 -348 0
845 348 0
-846 -351 0
846 351 0
-847 -35 0
847 35 0
-848 -354 0
848 354 0
-849 -357 0
849 357 0
-850 -359 0
850 359 0
-851 -362 0
851 362 0
-852 -365 0
852 365 0
-853 -48 0
853 48 0
-854 -368 0
854 368 0
-855 -371 0
855 371 0
-856 -374 0
856 374 0
-857 -377 0
857 377 0
-858 -380 0
858 380 0
-859 -383 0
859 383 0
-860 -386 0
860 386 0
-861 -389 0
861 389 0
-862 -392 0
862 392 0
-863 -395 0
863 395 0
-864 -49 0
864 49 0
-865 -398 0
865 398 0
-866 -401 0
866 401 0
-867 -404 0
867 404 0
-868 -407 0
868 407 0
-869 -410 0
869 410 0
-870 -42 0
870 42 0
-871 -413 0
871 413 0
-872 -416 0
872 416 0
-873 -419 0
873 419 0
-874 -422 0
874 422 0
-875 -425 0
875 425 0
-876 -428 0
876 428 0
-877 -431 0
877 431 0
-878 -434 0
878 434 0
-879 -437 0
879 437 0
-880 -440 0
880 440 0
-881 -443 0
881 443 0
-882 -446 0
882 446 0
-883 -449 0
883 449 0
-884 -452 0
884 452 0
-885 -455 0
885 455 0
-886 -458 0
886 458 0
-887 -460 0
887 460 0
-888 -463 0
888 463 0
-889 -466 0
889 466 0
-890 -469 0
890 469 0
-891 -472 0
891 472 0
-892 -475 0
892 475 0
-893 -478 0
893 478 0
-894 -481 0
894 481 0
-895 -484 0
895 484 0
-896 -487 0
896 487 0
-897 -490 0
897 490 0
-898 -493 0
898 493 0
-899 -496 0
899 496 0
-900 -499 0
900 499 0
-901 -502 0
901 502 0
-902 -505 0
902 505 0
-903 -508 0
903 508 0
-904 -511 0
904 511 0
-905 -514 0
905 514 0
-906 -517 0
906 517 0
-907 -520 0
907 520 0
-908 -523 0
908 523 0
-909 -526 0
909 526 0
-910 -529 0
910 529 0
-911 -532 0
911 532 0
-912 -535 0
912 535 0
-913 -538 0
913 538 0
-914 -541 0
914 541 0
-915 -544 0
915 544 0
-916 -547 0
916 547 0
-917 -550 0
917 550 0
-918 -553 0
918 553 0
-919 -556 0
919 556 0
-920 -559 0
920 559 0
-921 -562 0
921 562 0
-922 -565 0
922 565 0
-923 -568 0
923 568 0
-924 -571 0
924 571 0
-925 -574 0
925 574 0
-926 -577 0
926 577 0
-927 -580 0
927 580 0
-928 -583 0
928 583 0
-929 -586 0
929 586 0
-930 -589 0
930 589 0
-931 -592 0
931 592 0
-932 -595 0
932 595 0
-933 -598 0
933 598 0
-934 -601 0
934 601 0
-935 -604 0
935 604 0
-936 -607 0
936 607 0
-937 -610 0
937 610 0
-938 -613 0
938 613 0
-939 -616 0
939 616 0
-940 -619 0
940 619 0
-941 -622 0
941 622 0
-942 -625 0
942 625 0
-943 -628 0
943 628 0
-944 -631 0
944 631 0
-945 -634 0
945 634 0
-946 -637 0
946 637 0
-947 -640 0
947 640 0
-948 -643 0
948 643 0
-949 -646 0
949 646 0
-950 -649 0
950 649 0
-951 -652 0
951 652 0
-952 -655 0
952 655 0
-953 -658 0
953 658 0
-954 -661 0
954 661 0
-955 -664 0
955 664 0
-956 -667 0
956 667 0
-957 -670 0
957 670 0
-958 -673 0
958 673 0
-959 -676 0
959 676 0
-960 -678 0
960 678 0
-961 -681 0
961 681 0
-962 -683 0
962 683 0
-963 -686 0
963 686 0
-964 -689 0
964 689 0
-965 -692 0
965 692 0
-966 -695 0
966 695 0
-967 -698 0
967 698 0
699 0
